language ESSENCE' 1.0

letting pos_FunctionND be
        [[1, 3; int(1..2)], [2, 5; int(1..2)], [6, 10; int(1..2)], [9, 14; int(1..2)], [12, 18; int(1..2)],
         [15, 22; int(1..2)], [13, 21; int(1..2)], [11, 20; int(1..2)], [7, 17; int(1..2)], [8, 19; int(1..2)],
         [4, 16; int(1..2)];
             int(1..11)]
$ Visualisation for pos_FunctionND
$  1  3
$  2  5
$  6 10
$  9 14
$ 12 18
$ 15 22
$ 13 21
$ 11 20
$  7 17
$  8 19
$  4 16

